Route #1: 57 59 60 58 56 53 54 55 64 61 74 62 63 65 67
Route #2: 32 33 34 36 39 38 37 35 31 52 50 51 48 45 44 46 49 47 43 42 41 40 68 66 69
Route #3: 72 80 79 77 73 70 71 76 78 81 82 83 84 85 88 89 86 87 90
Route #4: 20 21 22 24 25 27 29 30 28 26 23 10 11 9 8 6 7 5 3 4 2 1 75
Route #5: 13 17 18 19 15 16 14 12 99 100 97 93 92 94 95 96 98 91
Cost 662.219698